(set-logic QF_UFC)
(set-option :uf-ss-totality true)
(declare-const v1 Bool)
(declare-const v2 Bool)
(declare-const v3 Bool)
(declare-const v4 Bool)
(declare-sort S1 0)
(declare-const S1-0 S1)
(declare-const v23 Bool)
(declare-const v26 Bool)
(declare-const v28 Bool)
(assert (fmf.card S1-0 9))
(check-sat-assuming ((! (or (= true (=> (not v1) true)) false (= true (distinct S1-0 S1-0 S1-0 S1-0) (distinct S1-0 S1-0 S1-0 S1-0) (= (not v1) v4 true true v2 true) (=> (xor v3 true true true true true v2) true))) :named IP_287) (! (and (or v26 (not v1) (not v1)) (or (=> false v4) v23 (= true (distinct S1-0 S1-0 S1-0 S1-0) (distinct S1-0 S1-0 S1-0 S1-0) (= (not v1) v4 true true v2 true) (=> (xor v3 true true true true true v2) true))) (or v28 v26 false) (or (xor v3 true true true true true v2) true v26) (or true false (= true (distinct S1-0 S1-0 S1-0 S1-0) (distinct S1-0 S1-0 S1-0 S1-0) (= (not v1) v4 true true v2 true) (=> (xor v3 true true true true true v2) true))) (or (= true (distinct S1-0 S1-0 S1-0 S1-0) (distinct S1-0 S1-0 S1-0 S1-0) (= (not v1) v4 true true v2 true) (=> (xor v3 true true true true true v2) true)) v28 (=> (not v1) true)) (or v26 v28 true) (or v23 v23 v26)) :named IP_525)))
